bomb.15.tsp
NAME : GeneratedProblem
COMMENT : SVGCrosshatch
TYPE : TSP
DIMENSION : 5
EDGE_WEIGHT_TYPE : EUC_2D
NODE_COORD_SECTION
1 3300 11200
2 3400 11200
3 3500 11300
4 3600 11300
5 3700 11300
EOF
