bomb.15.out.txt
NAME : GeneratedProblem.840.tour
COMMENT : Length = 840
COMMENT : Found by LKH [Keld Helsgaun] Sat Nov 24 14:17:57 2018
TYPE : TOUR
DIMENSION : 5
TOUR_SECTION
1
2
5
4
3
-1
EOF
